33D32945 STP File, STP Format Version 1.0

SECTION Comment
Name    "cancer11_8D"
Creator "S. A. Chowdhury, A. A. Schaffer, R. Schwartz"
Problem "Rectilinear Steiner Minimum Tree"
Remark  "Derived from a problem in cancer genomics and from a breast cancer data set"
END

SECTION Graph
Nodes 75
END

SECTION Coordinates
DDDDDDDD 1 2 2 2 2 2 2 2 2 
DDDDDDDD 2 2 2 2 2 2 2 1 2 
DDDDDDDD 3 2 1 2 2 2 4 4 2 
DDDDDDDD 4 2 2 1 2 1 2 2 2 
DDDDDDDD 5 2 2 2 2 1 2 1 2 
DDDDDDDD 6 3 1 9 3 1 2 2 4 
DDDDDDDD 7 7 2 9 0 2 2 2 2 
DDDDDDDD 8 6 5 9 5 4 4 7 6 
DDDDDDDD 9 2 2 2 1 2 2 2 0 
DDDDDDDD 10 2 2 2 1 2 2 2 2 
DDDDDDDD 11 2 2 2 3 2 2 2 2 
DDDDDDDD 12 3 2 9 1 2 2 3 3 
DDDDDDDD 13 1 2 2 2 2 2 2 2 
DDDDDDDD 14 2 1 2 2 2 2 2 2 
DDDDDDDD 15 2 2 1 2 2 2 2 3 
DDDDDDDD 16 2 2 2 2 2 1 1 2 
DDDDDDDD 17 2 2 2 2 2 2 2 1 
DDDDDDDD 18 2 2 2 2 2 3 2 2 
DDDDDDDD 19 2 2 2 2 2 3 3 2 
DDDDDDDD 20 2 2 2 2 2 4 2 2 
DDDDDDDD 21 2 2 2 2 2 4 5 2 
DDDDDDDD 22 2 2 2 3 2 2 2 4 
DDDDDDDD 23 2 3 2 2 4 2 2 2 
DDDDDDDD 24 3 2 9 2 2 2 2 2 
DDDDDDDD 25 5 2 9 0 2 0 2 0 
DDDDDDDD 26 7 2 9 2 2 2 2 2 
DDDDDDDD 27 2 2 2 2 2 2 2 4 
DDDDDDDD 28 2 3 2 4 4 2 2 5 
DDDDDDDD 29 4 2 2 3 2 2 2 3 
DDDDDDDD 30 7 3 9 4 3 3 4 5 
DDDDDDDD 31 2 4 1 5 5 4 3 7 
DDDDDDDD 32 6 3 9 8 3 4 4 5 
DDDDDDDD 33 7 3 9 3 4 4 4 4 
DDDDDDDD 34 7 4 9 5 4 3 3 6 
DDDDDDDD 35 8 3 9 5 4 4 4 5 
DDDDDDDD 36 7 2 9 4 5 4 5 5 
DDDDDDDD 37 7 3 9 5 5 4 4 4 
DDDDDDDD 38 8 3 8 4 3 4 4 4 
DDDDDDDD 39 7 2 9 4 3 4 4 4 
DDDDDDDD 40 7 2 9 6 2 3 4 5 
DDDDDDDD 41 6 3 9 5 3 2 2 5 
DDDDDDDD 42 2 2 2 2 2 1 3 2 
DDDDDDDD 43 5 2 9 2 1 3 3 3 
DDDDDDDD 44 6 2 9 2 4 3 4 2 
DDDDDDDD 45 7 1 8 4 3 4 3 5 
DDDDDDDD 46 7 3 9 6 4 4 4 5 
DDDDDDDD 47 7 3 9 4 4 2 3 4 
DDDDDDDD 48 7 3 9 5 4 4 4 4 
DDDDDDDD 49 8 3 9 4 3 3 3 4 
DDDDDDDD 50 8 3 9 4 4 4 4 5 
DDDDDDDD 51 8 3 9 5 4 4 4 2 
DDDDDDDD 52 1 3 2 4 4 3 4 4 
DDDDDDDD 53 2 2 2 2 4 2 3 3 
DDDDDDDD 54 7 3 9 4 5 2 4 4 
DDDDDDDD 55 7 3 9 5 4 2 2 4 
DDDDDDDD 56 7 3 9 5 4 3 3 5 
DDDDDDDD 57 7 3 9 4 4 3 4 5 
DDDDDDDD 58 8 3 9 5 4 4 4 4 
DDDDDDDD 59 4 3 7 4 4 3 3 5 
DDDDDDDD 60 5 3 8 4 4 3 4 4 
DDDDDDDD 61 6 2 9 5 4 3 4 5 
DDDDDDDD 62 6 3 9 4 4 4 4 5 
DDDDDDDD 63 6 3 9 4 4 3 4 5 
DDDDDDDD 64 6 3 9 5 4 4 4 5 
DDDDDDDD 65 6 4 9 4 4 4 4 4 
DDDDDDDD 66 7 2 9 7 2 4 4 6 
DDDDDDDD 67 7 2 9 4 4 4 4 5 
DDDDDDDD 68 7 3 7 4 4 2 3 4 
DDDDDDDD 69 7 3 9 4 4 4 4 4 
DDDDDDDD 70 7 3 9 4 4 3 4 4 
DDDDDDDD 71 8 4 9 4 6 3 3 5 
DDDDDDDD 72 9 5 9 7 8 6 8 7 
DDDDDDDD 73 6 4 9 4 2 3 4 5 
DDDDDDDD 74 7 3 8 5 4 3 5 5 
DDDDDDDD 75 8 2 9 4 5 2 4 5 
END

EOF
